p cnf 133 473
-3 1 0
-3 2 0
-1 -2 3 0
5 3 0
5 4 0
-3 -4 -5 0
-5 -6 -7 0
5 6 -7 0
-5 6 7 0
5 -6 7 0
-7 -8 -9 0
7 8 -9 0
-7 8 9 0
7 -8 9 0
11 -12 0
-11 -12 0
10 12 -13 0
-10 -12 -13 0
10 -12 13 0
-10 12 13 0
16 -14 0
16 -15 0
14 15 -16 0
13 -17 -18 0
-13 17 -18 0
13 17 18 0
-13 -17 18 0
16 -18 -19 0
-16 18 -19 0
16 18 19 0
-16 -18 19 0
-20 -13 0
-20 19 0
13 -19 20 0
23 21 0
23 -22 0
-21 22 -23 0
24 -23 0
24 -13 0
23 13 -24 0
25 24 0
25 -15 0
-24 15 -25 0
-25 21 -26 0
25 -21 -26 0
-25 -21 26 0
25 21 26 0
20 -26 -27 0
-20 26 -27 0
20 26 27 0
-20 -26 27 0
-28 -9 0
-28 -27 0
9 27 28 0
29 13 0
29 21 0
-13 -21 -29 0
-30 22 0
-30 29 0
-22 -29 30 0
-30 25 -31 0
30 -25 -31 0
-30 -25 31 0
30 25 31 0
15 -13 -32 0
-15 13 -32 0
15 13 32 0
-15 -13 32 0
33 -31 0
33 32 0
31 -32 -33 0
-34 -13 0
-34 -2 0
13 2 34 0
35 1 0
35 2 0
-1 -2 -35 0
34 35 -36 0
-34 -35 -36 0
34 -35 36 0
-34 35 36 0
37 29 0
37 -18 0
-29 18 -37 0
-38 16 0
-38 -23 0
-16 23 38 0
39 37 0
39 -38 0
-37 38 -39 0
36 39 -40 0
-36 -39 -40 0
36 -39 40 0
-36 39 40 0
41 33 0
41 -40 0
-33 40 -41 0
-42 28 0
-42 -41 0
-28 41 42 0
-44 43 0
-44 -16 0
-43 16 44 0
45 -44 0
45 -10 0
44 10 -45 0
47 45 0
47 46 0
-45 -46 -47 0
48 45 0
48 19 0
-45 -19 -48 0
49 -47 0
49 -48 0
47 48 -49 0
-50 -14 0
-50 20 0
14 -20 50 0
51 -11 0
51 -12 0
11 12 -51 0
-52 -51 0
-52 -44 0
51 44 52 0
53 -52 0
53 48 0
52 -48 -53 0
-50 -53 -54 0
50 53 -54 0
-50 53 54 0
50 -53 54 0
-55 -49 0
-55 54 0
49 -54 55 0
56 14 0
56 -2 0
-14 2 -56 0
-13 -2 -57 0
13 2 -57 0
-13 2 57 0
13 -2 57 0
32 -57 -58 0
-32 57 -58 0
32 57 58 0
-32 -57 58 0
59 -56 0
59 58 0
56 -58 -59 0
-60 -3 0
-60 -4 0
3 4 60 0
-61 -15 0
-61 60 0
15 -60 61 0
62 -15 0
62 19 0
15 -19 -62 0
35 62 -63 0
-35 -62 -63 0
35 -62 63 0
-35 62 63 0
-64 -10 0
-64 22 0
10 -22 64 0
-65 64 0
-65 -21 0
-64 21 65 0
66 -63 0
66 -65 0
63 65 -66 0
67 -64 0
67 -17 0
64 17 -67 0
1 17 -68 0
-1 -17 -68 0
1 -17 68 0
-1 17 68 0
-69 -68 0
-69 25 0
68 -25 69 0
-70 -16 0
-70 69 0
16 -69 70 0
-70 60 -71 0
70 -60 -71 0
-70 -60 71 0
70 60 71 0
-72 -67 0
-72 71 0
67 -71 72 0
-73 -31 0
-73 -72 0
31 72 73 0
17 10 -74 0
-17 -10 -74 0
17 -10 74 0
-17 10 74 0
73 74 -75 0
-73 -74 -75 0
73 -74 75 0
-73 74 75 0
76 66 0
76 75 0
-66 -75 -76 0
70 -69 -77 0
-70 69 -77 0
70 69 77 0
-70 -69 77 0
77 71 -78 0
-77 -71 -78 0
77 -71 78 0
-77 71 78 0
79 76 0
79 -78 0
-76 78 -79 0
-61 -79 -80 0
61 79 -80 0
-61 79 80 0
61 -79 80 0
-81 18 0
-81 24 0
-18 -24 81 0
20 63 -82 0
-20 -63 -82 0
20 -63 82 0
-20 63 82 0
81 -82 -83 0
-81 82 -83 0
81 82 83 0
-81 -82 83 0
-84 -7 0
-84 -71 0
7 71 84 0
6 3 -85 0
-6 -3 -85 0
6 -3 85 0
-6 3 85 0
-86 -84 0
-86 85 0
84 -85 86 0
87 83 0
87 86 0
-83 -86 -87 0
69 -64 -88 0
-69 64 -88 0
69 64 88 0
-69 -64 88 0
6 18 -89 0
-6 -18 -89 0
6 -18 89 0
-6 18 89 0
-90 88 0
-90 -89 0
-88 89 90 0
87 -90 -91 0
-87 90 -91 0
87 90 91 0
-87 -90 91 0
92 51 0
92 -25 0
-51 25 -92 0
91 92 -93 0
-91 -92 -93 0
91 -92 93 0
-91 92 93 0
80 -93 -94 0
-80 93 -94 0
80 93 94 0
-80 -93 94 0
95 -59 0
95 -94 0
59 94 -95 0
96 -55 0
96 -95 0
55 95 -96 0
97 42 0
97 96 0
-42 -96 -97 0
-98 43 0
-98 -14 0
-43 14 98 0
99 98 0
99 6 0
-98 -6 -99 0
100 3 0
100 51 0
-3 -51 -100 0
101 -70 0
101 1 0
70 -1 -101 0
102 100 0
102 101 0
-100 -101 -102 0
103 17 0
103 -13 0
-17 13 -103 0
-104 56 0
-104 -21 0
-56 21 104 0
-105 -15 0
-105 104 0
15 -104 105 0
106 -35 0
106 43 0
35 -43 -106 0
-107 -105 0
-107 -106 0
105 106 107 0
108 -103 0
108 -107 0
103 107 -108 0
-109 102 0
-109 108 0
-102 -108 109 0
110 -10 0
110 -30 0
10 30 -110 0
-111 -2 0
-111 65 0
2 -65 111 0
-112 -14 0
-112 -70 0
14 70 112 0
113 21 0
113 -105 0
-21 105 -113 0
-114 -69 0
-114 113 0
69 -113 114 0
115 -112 0
115 -114 0
112 114 -115 0
-111 -115 -116 0
111 115 -116 0
-111 115 116 0
111 -115 116 0
-117 110 0
-117 116 0
-110 -116 117 0
-67 -23 -118 0
67 23 -118 0
-67 23 118 0
67 -23 118 0
119 -118 0
119 31 0
118 -31 -119 0
117 119 -120 0
-117 -119 -120 0
117 -119 120 0
-117 119 120 0
121 -109 0
121 120 0
109 -120 -121 0
-122 99 0
-122 121 0
-99 -121 122 0
-26 -21 -123 0
26 21 -123 0
-26 21 123 0
26 -21 123 0
124 47 0
124 17 0
-47 -17 -124 0
-125 63 0
-125 1 0
-63 -1 125 0
-126 63 0
-126 125 0
-63 -125 126 0
127 -124 0
127 -126 0
124 126 -127 0
-128 43 0
-128 118 0
-43 -118 128 0
-128 11 -129 0
128 -11 -129 0
-128 -11 129 0
128 11 129 0
130 127 0
130 -129 0
-127 129 -130 0
-123 130 -131 0
123 -130 -131 0
-123 -130 131 0
123 130 131 0
-132 -122 0
-132 131 0
122 -131 132 0
-97 132 -133 0
97 -132 -133 0
-97 -132 133 0
97 132 133 0
82 58 0
-7 -83 -47 101 0
111 115 41 -62 -44 -92 0
103 -7 0
51 -86 108 100 106 0
106 129 -109 32 0
-42 121 -84 -14 0
6 -54 0
53 94 50 71 81 36 0
-80 -16 -68 -8 0
127 128 -23 0
77 -12 -131 -42 0
117 16 96 -52 0
-131 9 -84 -23 0
-98 1 9 58 0
87 -121 -110 -117 -114 0
74 82 133 41 0
63 -58 57 110 37 -11 0
98 43 15 -9 0
69 -128 20 -123 74 55 0
-45 28 0
-129 -133 -113 0
55 -92 0
-126 9 -125 0
-88 -17 21 0
-86 126 -24 80 -116 -49 0
91 -103 18 0
32 -58 62 0
88 98 103 0
49 67 -51 123 121 0
86 -68 -66 -121 0
-98 -118 0
-114 -113 -81 -108 -116 70 0
-71 -106 18 69 -114 0
-107 130 98 -36 125 0
22 11 101 -121 -30 -32 0
65 93 -16 92 2 -106 0
108 -42 0
-51 -74 0
-28 59 0
-89 98 0
85 102 129 0
50 22 105 116 0
28 -52 0
-18 -93 132 -22 -51 -101 0
38 29 -44 -16 0
116 -52 89 -107 0
-70 80 -82 0
-101 -17 2 29 125 0
-61 -25 -91 95 38 0
-114 100 9 -39 -86 0
51 36 0
6 -9 4 32 0
-28 130 0
94 15 0
-67 82 -96 -64 0
-35 -61 -59 -9 0
-115 88 0
26 -129 0
-52 -65 -94 46 122 0
-89 -115 -81 0
-66 -50 36 11 0
4 11 79 51 0
-36 20 48 -108 0
-81 82 1 -48 -72 0
29 55 9 -99 -109 8 0
84 79 -74 0
77 -79 -74 88 0
110 95 67 -57 0
-102 -95 -18 110 0
-20 49 62 0
4 -6 -104 0
-61 17 9 34 -60 0
-78 57 -65 121 -104 0
33 108 0
50 13 0
-25 82 -103 4 -11 120 0
76 -97 93 22 94 0
97 -19 5 105 0
133 0
